# Solution for model r5_t27_m5_5
# Finished Task: 25 / 27
# Makespan: 808.0, Total Distance: 1328.0, Total Time: 1.5073
# R O S F
0 0 17 0.0 0.0
1 1 27 0.0 0.0
2 2 23 0.0 0.0
3 3 8 0.0 0.0
4 4 12 0.0 0.0
5 2 30 563.0 602.0
6 4 -1 709.0 741.0
7 -1 -1 -1.0 -1.0
8 3 21 161.0 193.0
9 3 15 462.0 500.0
10 4 29 528.0 565.0
11 -1 -1 -1.0 -1.0
12 4 24 207.0 239.0
13 0 -1 765.0 796.0
14 4 16 347.0 376.0
15 3 19 508.0 538.0
16 4 10 463.0 487.0
17 0 20 506.0 536.0
18 1 -1 697.0 719.0
19 3 25 627.0 653.0
20 0 31 583.0 613.0
21 3 9 402.0 425.0
22 1 18 613.0 643.0
23 2 5 514.0 553.0
24 4 14 283.0 314.0
25 3 -1 706.0 727.0
26 4 6 667.0 692.0
27 1 22 553.0 583.0
28 2 -1 786.0 808.0
29 4 26 581.0 619.0
30 2 28 643.0 682.0
31 0 13 650.0 686.0
